[
2.520
,
2.65080
]
ID:x1
;
[
2.00
,
2.463508844180
]
ID:x2
;
[
2.00
,
2.463508844180
]
ID:x3
;
[
2.00
,
2.463508844180
]
ID:x4
;
[
2.00
,
2.463508844180
]
ID:x5
;
[
1.00
,
1.00
]
ID:x6
;
(
(
ID:not
(
(
<
(
+
(
*
1.00
(
*
2.00
(
*
3.14159265
0.1299130
)
)
)
(
+
(
*
ID:x1
(
-
0.091520
)
)
(
+
(
*
ID:x1
0.3476590
)
(
+
(
*
ID:x1
(
-
0.1052080
)
)
(
+
(
*
ID:x1
(
-
0.1509310
)
)
(
+
(
*
ID:x2
(
*
2.00
0.0023720
)
)
(
+
(
*
ID:x2
(
*
2.00
(
-
0.0023720
)
)
)
(
+
(
*
ID:x3
(
*
2.00
(
-
0.0023720
)
)
)
(
+
(
*
ID:x3
(
*
2.00
0.0023720
)
)
(
+
(
*
ID:x4
(
*
2.00
0.0023720
)
)
(
+
(
*
ID:x4
(
*
2.00
(
-
0.0023720
)
)
)
(
+
(
*
ID:x5
(
*
2.00
(
-
0.0023720
)
)
)
(
+
(
*
ID:x5
(
*
2.00
0.0023720
)
)
(
+
(
*
1.00
(
-
0.0347490
)
)
(
+
(
*
1.00
(
-
1.0304250
)
)
(
+
(
*
1.00
0.0728490
)
(
*
1.00
0.1760570
)
)
)
)
)
)
)
)
)
)
)
)
)
)
)
)
)
0.00
)
)
)
)
(set-logic QF_NRA)
(declare-fun x1 () Real)
(declare-fun x2 () Real)
(declare-fun x3 () Real)
(declare-fun x4 () Real)
(declare-fun x5 () Real)
(declare-fun x6 () Real)
(assert (<= 2.52 x1))
(assert (<= x1 2.6508))
(assert (<= 2.0 x2))
(assert (<= x2 2.46350884418))
(assert (<= 2.0 x3))
(assert (<= x3 2.46350884418))
(assert (<= 2.0 x4))
(assert (<= x4 2.46350884418))
(assert (<= 2.0 x5))
(assert (<= x5 2.46350884418))
(assert (<= 1.0 x6))
(assert (<= x6 1.0))
(assert (not (< (+ (* 1.0 (* 2.0 (* 3.14159265 0.129913))) (+ (* x1 (- 0.09152)) (+ (* x1 0.347659) (+ (* x1 (- 0.105208)) (+ (* x1 (- 0.150931)) (+ (* x2 (* 2.0 0.002372)) (+ (* x2 (* 2.0 (- 0.002372))) (+ (* x3 (* 2.0 (- 0.002372))) (+ (* x3 (* 2.0 0.002372)) (+ (* x4 (* 2.0 0.002372)) (+ (* x4 (* 2.0 (- 0.002372))) (+ (* x5 (* 2.0 (- 0.002372))) (+ (* x5 (* 2.0 0.002372)) (+ (* 1.0 (- 0.034749)) (+ (* 1.0 (- 1.030425)) (+ (* 1.0 0.072849) (* 1.0 0.176057))))))))))))))))) 0.0)))
(check-sat)
(exit)
